(set-option :print-success false)
(set-logic QF_UF)
(declare-sort x106 0)
(declare-sort x111 0)
(declare-fun x43 () x111)
(declare-fun x140 (x111 x111) x111)
(declare-fun x116 () x111)
(declare-fun x5 () x111)
(declare-fun x129 (x111 x111) x111)
(declare-fun x120 () x111)
(declare-fun x67 () x111)
(assert (let ((x76 (x140 x43 x5)) (x114 (x140 x5 x43)) (x14 (x140 x5 x120)) (x34 (x140 x5 x5)) (x24 (x140 x67 x120)) (x107 (x140 x67 x5)) (x95 (x140 x116 x116)) (x70 (x140 x116 x67)) (x50 (x140 x67 x43)) (x18 (x140 x43 x116)) (x2 (x140 x67 x67)) (x11 (x140 x43 x120)) (x133 (x140 x67 x116)) (x35 (x140 x120 x67)) (x105 (x140 x120 x120)) (x4 (x140 x120 x5)) (x17 (x140 x120 x116)) (x97 (x140 x5 x116)) (x20 (x140 x116 x5)) (x16 (x140 x43 x67)) (x122 (x140 x5 x67)) (x19 (x140 x120 x43)) (x92 (x140 x43 x43)) (x46 (x140 x116 x120)) (x112 (x140 x116 x43))) (let ((x26 (= x120 x92)) (x13 (= x5 x46)) (x146 (= x120 x95)) (x142 (= x5 x50)) (x127 (= x50 x67)) (x51 (= x122 x5)) (x28 (= x76 x116)) (x121 (= x67 x18)) (x55 (= x70 x116)) (x41 (= x19 x67)) (x3 (= x76 x120)) (x103 (= x43 x34)) (x77 (= x67 x4)) (x155 (= x20 x116)) (x108 (= x35 x43)) (x82 (= x120 x18)) (x89 (= x120 x46)) (x27 (= x120 x97)) (x124 (= x5 x105)) (x119 (= x116 x4)) (x128 (= x43 x105)) (x30 (= x43 x95)) (x88 (= x5 x11)) (x90 (= x120 x20)) (x48 (= x18 x43)) (x22 (= x46 x43)) (x42 (= x43 x14)) (x156 (= x43 x76)) (x130 (= x11 x116)) (x23 (= x92 x43)) (x158 (= x24 x67)) (x149 (= x20 x67)) (x152 (= x116 x92)) (x101 (= x11 x120)) (x60 (= x19 x120)) (x32 (= x107 x120)) (x47 (= x112 x5)) (x33 (= x67 x17)) (x148 (= x133 x67)) (x143 (= x43 x97)) (x63 (= x46 x67)) (x9 (= x4 x43)) (x40 (= x67 x2)) (x159 (= x114 x43)) (x135 (= x4 x5)) (x138 (= x107 x43)) (x79 (= x67 x34)) (x98 (= x67 x70)) (x65 (= x120 x112)) (x96 (= x114 x5)) (x74 (= x18 x5)) (x12 (= x43 x20)) (x64 (= x116 x133)) (x66 (= x95 x5)) (x15 (= x116 x17)) (x147 (= x105 x116)) (x75 (= x120 x105)) (x59 (= x16 x67)) (x61 (= x120 x24)) (x6 (= x46 x116)) (x141 (= x92 x67)) (x137 (= x97 x67)) (x81 (= x18 x116)) (x38 (= x122 x43)) (x21 (= x112 x67)) (x134 (= x50 x116)) (x39 (= x67 x105)) (x58 (= x19 x116)) (x93 (= x2 x116)) (x131 (= x76 x5)) (x110 (= x133 x5)) (x125 (= x120 x34)) (x7 (= x120 x2)) (x157 (= x24 x116)) (x123 (= x67 x122)) (x53 (= x35 x120)) (x84 (= x116 x114)) (x1 (= x14 x67)) (x80 (= x43 x50)) (x83 (= x67 x11)) (x44 (= x19 x43)) (x57 (= x120 x17)) (x151 (= x116 x16)) (x45 (= x116 x35)) (x69 (= x114 x120)) (x85 (= x17 x5)) (x150 (= x5 x2)) (x54 (= x67 x114)) (x25 (= x5 x35)) (x145 (= x14 x116)) (x73 (= x5 x20)) (x37 (= x120 x122)) (x8 (= x43 x112)) (x29 (= x116 x107)) (x99 (= x70 x43)) (x115 (= x95 x67)) (x126 (= x107 x5)) (x49 (= x133 x43)) (x102 (= x70 x120)) (x68 (= x43 x2)) (x78 (= x76 x67)) (x139 (= x133 x120)) (x87 (= x5 x16)) (x62 (= x67 x107)) (x31 (= x95 x116)) (x36 (= x5 x19)) (x109 (= x43 x17)) (x72 (= x24 x43)) (x100 (= x14 x120)) (x10 (= x5 x34)) (x113 (= x5 x14)) (x132 (= x34 x116)) (x153 (= x120 x16)) (x136 (= x116 x122)) (x118 (= x116 x97)) (x56 (= x120 x4)) (x71 (= x43 x16)) (x104 (= x112 x116)) (x86 (= x92 x5)) (x94 (= x5 x97)) (x154 (= x70 x5)) (x91 (= x67 x35)) (x117 (= x24 x5)) (x144 (= x11 x43)) (x52 (= x50 x120))) (and (and (and (and (and (and (and (or (or (or x102 (or x153 x7)) x53) x37) (or (or (or x139 (or x52 x7)) x61) x32)) (and (and (or (or x157 (or (or x134 x93) x64)) x29) (or (or x45 (or (or x93 x151) x55)) x136)) (and (and (or x138 (or x72 (or (or x68 x80) x49))) (or (or (or (or x68 x71) x99) x108) x38)) (and (or (or x91 (or x98 (or x59 x40))) x123) (or (or x158 (or (or x127 x40) x148)) x62))))) (and (or (or (or x110 (or x150 x142)) x117) x126) (or (or x25 (or (or x87 x150) x154)) x51))) (and (and (or (or x88 (or x74 (or x86 x87))) x131) (or (or (or (or x142 x86) x47) x36) x96)) (and (and (and (or (or x58 (or (or x152 x134) x104)) x84) (or (or (or (or x152 x151) x81) x130) x28)) (and (and (or (or (or x21 (or x127 x141)) x41) x54) (or (or (or x121 (or x59 x141)) x83) x78)) (and (or x156 (or x144 (or x48 (or x23 x71)))) (or x159 (or (or x8 (or x23 x80)) x44))))) (and (or x3 (or x101 (or (or x153 x26) x82))) (or x69 (or (or (or x26 x52) x65) x60)))))) (and (and (or (or (or x66 (or x74 x110)) x85) x94) (or (or x13 (or (or x47 x154) x66)) x73)) (and (and (and (and (or (or x109 (or (or x49 x48) x30)) x143) (or (or (or x30 (or x99 x8)) x22) x12)) (and (or x137 (or (or (or x148 x121) x115) x33)) (or (or (or (or x21 x98) x115) x63) x149))) (and (or x155 (or (or (or x104 x55) x31) x6)) (or (or x15 (or (or x64 x81) x31)) x118))) (and (or (or (or (or x139 x82) x146) x57) x27) (or (or (or x146 (or x102 x65)) x89) x90))))) (and (and (or (or (or x85 (or x36 x25)) x124) x135) (or x113 (or x124 (or (or x117 x88) x13)))) (and (and (and (or x119 (or x147 (or x15 (or x58 x45)))) (or (or (or x6 (or x157 x130)) x147) x145)) (and (and (or x9 (or x128 (or (or x108 x44) x109))) (or (or x128 (or x22 (or x144 x72))) x42)) (and (or x77 (or x39 (or x33 (or x91 x41)))) (or x1 (or (or x63 (or x158 x83)) x39))))) (and (or (or (or x57 (or x60 x53)) x75) x56) (or x100 (or x75 (or x89 (or x61 x101)))))))) (and (and (or x10 (or (or (or x131 x126) x73) x135)) (or x10 (or x113 (or (or x51 x96) x94)))) (and (and (or (or (or (or x37 x69) x27) x100) x125) (or x125 (or x56 (or (or x32 x3) x90)))) (and (and (or x132 (or (or (or x28 x29) x155) x119)) (or (or (or (or x84 x136) x118) x145) x132)) (and (and (or x79 (or (or (or x62 x78) x149) x77)) (or x79 (or (or x137 (or x54 x123)) x1))) (and (or (or (or (or x156 x138) x12) x9) x103) (or (or x42 (or x143 (or x38 x159))) x103))))))))))
(assert (let ((x133 (x140 x120 x120)) (x24 (x140 x5 x5)) (x50 (x140 x116 x116)) (x2 (x140 x43 x43)) (x40 (x140 x67 x67))) (or (and (not (= x5 x24)) (and (not (= x133 x5)) (and (and (not (= x40 x5)) (not (= x5 x2))) (not (= x5 x50))))) (or (or (and (not (= x116 x24)) (and (and (and (not (= x116 x40)) (not (= x2 x116))) (not (= x116 x50))) (not (= x116 x133)))) (or (and (not (= x24 x43)) (and (and (not (= x50 x43)) (and (not (= x2 x43)) (not (= x43 x40)))) (not (= x133 x43)))) (and (and (and (not (= x67 x50)) (and (not (= x67 x40)) (not (= x2 x67)))) (not (= x133 x67))) (not (= x67 x24))))) (and (not (= x120 x24)) (and (not (= x133 x120)) (and (not (= x120 x50)) (and (not (= x40 x120)) (not (= x120 x2))))))))))
(assert (let ((x40 (x140 x67 x67)) (x93 (x140 x43 x116)) (x122 (x140 x67 x116)) (x70 (x140 x120 x43)) (x35 (x140 x5 x43)) (x2 (x140 x43 x67)) (x141 (x140 x43 x120)) (x107 (x140 x67 x43)) (x92 (x140 x120 x120)) (x16 (x140 x116 x43)) (x59 (x140 x5 x116)) (x50 (x140 x116 x67)) (x150 (x140 x120 x116)) (x24 (x140 x5 x67)) (x23 (x140 x120 x5)) (x68 (x140 x43 x43)) (x112 (x140 x5 x5)) (x133 (x140 x120 x67)) (x11 (x140 x67 x5)) (x71 (x140 x116 x120)) (x80 (x140 x116 x5)) (x7 (x140 x116 x116)) (x127 (x140 x67 x120)) (x76 (x140 x43 x5)) (x18 (x140 x5 x120))) (and (and (and (not (= x23 x112)) (and (not (= x112 x80)) (and (not (= x80 x23)) (and (not (= x76 x112)) (and (not (= x76 x23)) (and (and (not (= x112 x11)) (and (and (not (= x11 x80)) (not (= x11 x76))) (not (= x23 x11)))) (not (= x80 x76)))))))) (and (and (and (and (and (not (= x16 x35)) (and (and (and (and (not (= x16 x68)) (and (not (= x107 x35)) (and (not (= x107 x70)) (and (not (= x107 x68)) (not (= x107 x16)))))) (not (= x68 x70))) (not (= x35 x68))) (not (= x16 x70)))) (not (= x70 x35))) (and (not (= x24 x133)) (and (not (= x24 x50)) (and (and (not (= x2 x24)) (and (and (and (and (not (= x40 x133)) (and (not (= x2 x40)) (not (= x50 x40)))) (not (= x24 x40))) (not (= x2 x50))) (not (= x2 x133)))) (not (= x50 x133)))))) (and (and (not (= x7 x59)) (and (not (= x7 x150)) (and (not (= x59 x93)) (and (not (= x93 x150)) (and (and (and (and (not (= x93 x122)) (not (= x7 x122))) (not (= x150 x122))) (not (= x59 x122))) (not (= x7 x93))))))) (not (= x150 x59)))) (and (not (= x92 x18)) (and (not (= x18 x71)) (and (and (and (not (= x141 x92)) (and (and (and (not (= x127 x92)) (and (not (= x71 x127)) (not (= x127 x141)))) (not (= x127 x18))) (not (= x141 x71)))) (not (= x141 x18))) (not (= x71 x92))))))) (and (and (and (not (= x112 x59)) (and (and (not (= x35 x112)) (and (not (= x18 x35)) (and (not (= x59 x35)) (and (not (= x112 x24)) (and (and (not (= x24 x59)) (not (= x24 x35))) (not (= x18 x24))))))) (not (= x59 x18)))) (not (= x18 x112))) (and (and (and (and (and (not (= x76 x93)) (and (not (= x93 x141)) (and (and (and (not (= x68 x93)) (and (and (not (= x2 x141)) (and (not (= x2 x68)) (not (= x2 x93)))) (not (= x76 x2)))) (not (= x68 x141))) (not (= x68 x76))))) (not (= x141 x76))) (and (and (not (= x122 x11)) (and (not (= x122 x127)) (and (not (= x107 x11)) (and (and (and (not (= x40 x11)) (and (not (= x40 x127)) (and (not (= x40 x107)) (not (= x40 x122))))) (not (= x122 x107))) (not (= x127 x107)))))) (not (= x11 x127)))) (and (not (= x80 x71)) (and (and (and (and (and (not (= x16 x7)) (and (and (not (= x71 x50)) (and (not (= x50 x7)) (not (= x16 x50)))) (not (= x50 x80)))) (not (= x16 x71))) (not (= x80 x16))) (not (= x7 x71))) (not (= x80 x7))))) (and (not (= x23 x92)) (and (and (not (= x92 x150)) (and (and (not (= x92 x70)) (and (and (not (= x23 x133)) (and (and (not (= x70 x133)) (not (= x133 x150))) (not (= x92 x133)))) (not (= x150 x70)))) (not (= x23 x70)))) (not (= x23 x150)))))))))
(assert (let ((x7 (x140 x67 x43)) (x18 (x140 x5 x5)) (x87 (x140 x116 x120)) (x21 (x140 x120 x116)) (x127 (x140 x116 x116)) (x115 (x140 x5 x67)) (x8 (x140 x5 x116)) (x134 (x140 x43 x5)) (x59 (x140 x67 x116)) (x112 (x140 x43 x116)) (x141 (x140 x67 x120)) (x95 (x140 x5 x120)) (x114 (x140 x43 x120)) (x122 (x140 x67 x67)) (x121 (x140 x120 x5)) (x142 (x140 x116 x5)) (x98 (x140 x120 x43)) (x52 (x140 x116 x43)) (x11 (x140 x43 x67)) (x153 (x140 x116 x67)) (x71 (x140 x120 x120)) (x99 (x140 x5 x43)) (x150 (x140 x43 x43)) (x92 (x140 x67 x5)) (x86 (x140 x120 x67))) (let ((x80 (= x150 x43)) (x65 (= x150 x120)) (x81 (= x116 x18)) (x39 (= x5 x127)) (x26 (= x127 x43)) (x48 (= x150 x116)) (x74 (= x18 x120)) (x93 (= x43 x122)) (x16 (= x67 x127)) (x44 (= x5 x18)) (x66 (= x122 x5)) (x40 (= x67 x122)) (x31 (= x122 x120)) (x20 (= x122 x116)) (x41 (= x150 x5)) (x46 (= x43 x18)) (x110 (= x71 x120)) (x108 (= x5 x71)) (x70 (= x67 x71)) (x47 (= x120 x127)) (x35 (= x67 x18)) (x50 (= x150 x67)) (x104 (= x127 x116)) (x64 (= x116 x71)) (x148 (= x43 x71))) (let ((x133 (not x50)) (x83 (not x108)) (x102 (not x31)) (x49 (not x20)) (x33 (not x41)) (x23 (not x80)) (x63 (not x44)) (x17 (not x104)) (x158 (not x39)) (x151 (not x148)) (x146 (not x110)) (x139 (not x65)) (x76 (not x93)) (x68 (not x35)) (x154 (not x74)) (x24 (not x16)) (x82 (not x47)) (x107 (not x70)) (x19 (not x26)) (x97 (not x64)) (x152 (not x46)) (x55 (not x81)) (x30 (not x48)) (x2 (not x40)) (x91 (not x66))) (and (and (and (and (or (or (or (and x107 (= x95 x67)) (or (and (= x67 x8) x24) (or (and x2 (= x67 x115)) (and (= x99 x67) x133)))) (and x35 x68)) (or (or (or (or (and x68 (= x67 x92)) (or (and x107 (= x67 x141)) (or (or (and x2 x40) (and (= x7 x67) x133)) (and (= x59 x67) x24)))) (or (or (or (or (and x133 x50) (and (= x67 x11) x2)) (and (= x67 x112) x24)) (and (= x114 x67) x107)) (and (= x67 x134) x68))) (or (and (= x67 x142) x68) (or (and x107 (= x87 x67)) (or (and x16 x24) (or (and (= x67 x153) x2) (and x133 (= x67 x52))))))) (or (and (= x67 x121) x68) (or (or (or (and x133 (= x98 x67)) (and x2 (= x86 x67))) (and (= x21 x67) x24)) (and x70 x107))))) (or (or (or (or (and x148 x151) (or (or (and x76 (= x86 x43)) (and (= x43 x98) x23)) (and (= x43 x21) x19))) (and x152 (= x43 x121))) (or (or (or (or (and (= x141 x43) x151) (or (and (= x43 x59) x19) (or (and x93 x76) (and (= x43 x7) x23)))) (and (= x92 x43) x152)) (or (or (and (= x114 x43) x151) (or (and x19 (= x112 x43)) (or (and x76 (= x11 x43)) (and x23 x80)))) (and x152 (= x134 x43)))) (or (or (or (or (and (= x43 x153) x76) (and x23 (= x52 x43))) (and x26 x19)) (and (= x43 x87) x151)) (and (= x43 x142) x152)))) (or (or (or (or (and (= x43 x99) x23) (and (= x43 x115) x76)) (and (= x8 x43) x19)) (and (= x95 x43) x151)) (and x46 x152)))) (or (or (or (or (or (or (or (and x49 (= x153 x116)) (and (= x116 x52) x30)) (and x17 x104)) (and (= x87 x116) x97)) (and (= x116 x142) x55)) (or (or (or (or (or (and (= x11 x116) x49) (and x48 x30)) (and x17 (= x116 x112))) (and x97 (= x114 x116))) (and x55 (= x116 x134))) (or (and (= x116 x92) x55) (or (or (and x17 (= x116 x59)) (or (and x20 x49) (and (= x7 x116) x30))) (and x97 (= x116 x141)))))) (or (and (= x116 x121) x55) (or (and x64 x97) (or (and x17 (= x21 x116)) (or (and x30 (= x116 x98)) (and (= x116 x86) x49)))))) (or (and x81 x55) (or (or (and x17 (= x116 x8)) (or (and (= x115 x116) x49) (and (= x116 x99) x30))) (and (= x95 x116) x97))))) (or (or (or (or (or (or (and (= x120 x86) x102) (and x139 (= x98 x120))) (and (= x21 x120) x82)) (and x146 x110)) (and x154 (= x121 x120))) (or (or (or (or (or (or (and x139 (= x120 x7)) (and x31 x102)) (and (= x120 x59) x82)) (and x146 (= x120 x141))) (and x154 (= x120 x92))) (or (or (and (= x114 x120) x146) (or (and x82 (= x112 x120)) (or (and x65 x139) (and x102 (= x11 x120))))) (and (= x134 x120) x154))) (or (and (= x142 x120) x154) (or (or (and x82 x47) (or (and (= x120 x153) x102) (and (= x120 x52) x139))) (and x146 (= x87 x120)))))) (or (or (and x146 (= x120 x95)) (or (or (and x139 (= x120 x99)) (and (= x120 x115) x102)) (and (= x8 x120) x82))) (and x74 x154)))) (or (or (and x44 x63) (or (and x83 (= x95 x5)) (or (or (and x33 (= x5 x99)) (and (= x5 x115) x91)) (and x158 (= x5 x8))))) (or (or (or (and x63 (= x5 x142)) (or (and x83 (= x87 x5)) (or (and x39 x158) (or (and (= x5 x153) x91) (and (= x5 x52) x33))))) (or (or (or (and (= x5 x114) x83) (or (and (= x112 x5) x158) (or (and (= x11 x5) x91) (and x41 x33)))) (and x63 (= x5 x134))) (or (or (and x83 (= x5 x141)) (or (or (and x33 (= x5 x7)) (and x66 x91)) (and x158 (= x59 x5)))) (and x63 (= x92 x5))))) (or (and (= x5 x121) x63) (or (or (or (and x33 (= x98 x5)) (and (= x86 x5) x91)) (and (= x5 x21) x158)) (and x83 x108))))))))))
(assert (or (and (not (= x5 (x140 x5 (x140 x5 x5)))) (and (not (= (x140 x5 (x140 x5 x120)) x120)) (and (and (not (= (x140 x5 (x140 x5 x43)) x43)) (not (= (x140 x5 (x140 x5 x67)) x67))) (not (= x116 (x140 x5 (x140 x5 x116))))))) (or (and (and (and (and (not (= x43 (x140 x120 (x140 x120 x43)))) (not (= x67 (x140 x120 (x140 x120 x67))))) (not (= (x140 x120 (x140 x120 x116)) x116))) (not (= (x140 x120 (x140 x120 x120)) x120))) (not (= x5 (x140 x120 (x140 x120 x5))))) (or (and (not (= (x140 x116 (x140 x116 x5)) x5)) (and (and (not (= x116 (x140 x116 (x140 x116 x116)))) (and (not (= (x140 x116 (x140 x116 x67)) x67)) (not (= (x140 x116 (x140 x116 x43)) x43)))) (not (= (x140 x116 (x140 x116 x120)) x120)))) (or (and (and (and (and (not (= x43 (x140 x43 (x140 x43 x43)))) (not (= (x140 x43 (x140 x43 x67)) x67))) (not (= x116 (x140 x43 (x140 x43 x116))))) (not (= (x140 x43 (x140 x43 x120)) x120))) (not (= x5 (x140 x43 (x140 x43 x5))))) (and (not (= x5 (x140 x67 (x140 x67 x5)))) (and (and (and (not (= (x140 x67 (x140 x67 x67)) x67)) (not (= x43 (x140 x67 (x140 x67 x43))))) (not (= x116 (x140 x67 (x140 x67 x116))))) (not (= x120 (x140 x67 (x140 x67 x120)))))))))))
(assert (or (and (= x5 (x140 x5 (x140 x5 x5))) (and (= (x140 x5 (x140 x5 x120)) x120) (and (and (= (x140 x5 (x140 x5 x43)) x43) (= (x140 x5 (x140 x5 x67)) x67)) (= x116 (x140 x5 (x140 x5 x116)))))) (or (and (and (= (x140 x120 (x140 x120 x120)) x120) (and (= x116 (x140 x120 (x140 x120 x116))) (and (= x67 (x140 x120 (x140 x120 x67))) (= x43 (x140 x120 (x140 x120 x43)))))) (= (x140 x120 (x140 x120 x5)) x5)) (or (or (and (and (= x120 (x140 x67 (x140 x67 x120))) (and (= x116 (x140 x67 (x140 x67 x116))) (and (= (x140 x67 (x140 x67 x67)) x67) (= x43 (x140 x67 (x140 x67 x43)))))) (= x5 (x140 x67 (x140 x67 x5)))) (and (= (x140 x43 (x140 x43 x5)) x5) (and (= (x140 x43 (x140 x43 x120)) x120) (and (and (= (x140 x43 (x140 x43 x67)) x67) (= (x140 x43 (x140 x43 x43)) x43)) (= (x140 x43 (x140 x43 x116)) x116))))) (and (and (and (and (= x43 (x140 x116 (x140 x116 x43))) (= (x140 x116 (x140 x116 x67)) x67)) (= x116 (x140 x116 (x140 x116 x116)))) (= x120 (x140 x116 (x140 x116 x120)))) (= x5 (x140 x116 (x140 x116 x5))))))))
(assert (and (and (and (and (or (or (= (x140 (x140 x120 x67) x67) x120) (or (= (x140 (x140 x116 x67) x67) x116) (or (= x67 (x140 (x140 x67 x67) x67)) (= (x140 (x140 x43 x67) x67) x43)))) (= x5 (x140 (x140 x5 x67) x67))) (or (or (or (= x116 (x140 (x140 x116 x43) x43)) (or (= (x140 (x140 x43 x43) x43) x43) (= x67 (x140 (x140 x67 x43) x43)))) (= (x140 (x140 x120 x43) x43) x120)) (= (x140 (x140 x5 x43) x43) x5))) (or (or (= x120 (x140 (x140 x120 x116) x116)) (or (= (x140 (x140 x116 x116) x116) x116) (or (= x43 (x140 (x140 x43 x116) x116)) (= x67 (x140 (x140 x67 x116) x116))))) (= (x140 (x140 x5 x116) x116) x5))) (or (= (x140 (x140 x5 x120) x120) x5) (or (or (= (x140 (x140 x116 x120) x120) x116) (or (= (x140 (x140 x43 x120) x120) x43) (= x67 (x140 (x140 x67 x120) x120)))) (= x120 (x140 (x140 x120 x120) x120))))) (or (or (or (= (x140 (x140 x116 x5) x5) x116) (or (= x43 (x140 (x140 x43 x5) x5)) (= x67 (x140 (x140 x67 x5) x5)))) (= x120 (x140 (x140 x120 x5) x5))) (= (x140 (x140 x5 x5) x5) x5))))
(assert (let ((x16 (x140 x67 x116)) (x121 (x140 x120 x5)) (x112 (x140 x43 x116)) (x98 (x140 x120 x43)) (x8 (x140 x5 x116)) (x21 (x140 x120 x116)) (x142 (x140 x116 x5)) (x11 (x140 x43 x67)) (x80 (x140 x43 x43)) (x87 (x140 x116 x120)) (x114 (x140 x43 x120)) (x86 (x140 x120 x67)) (x26 (x140 x116 x116)) (x46 (x140 x5 x5)) (x70 (x140 x67 x120)) (x115 (x140 x5 x67)) (x153 (x140 x116 x67)) (x95 (x140 x5 x120)) (x68 (x140 x67 x43)) (x52 (x140 x116 x43)) (x35 (x140 x67 x5)) (x99 (x140 x5 x43)) (x148 (x140 x120 x120)) (x134 (x140 x43 x5)) (x107 (x140 x67 x67))) (let ((x135 (= x95 x5)) (x34 (= x80 x5)) (x93 (= x67 x11)) (x101 (= x120 x26)) (x37 (= x116 x95)) (x118 (= x5 x153)) (x56 (= x21 x5)) (x1 (= x68 x5)) (x125 (= x8 x120)) (x131 (= x99 x5)) (x45 (= x98 x43)) (x15 (= x43 x21)) (x91 (= x52 x116)) (x105 (= x120 x70)) (x152 (= x43 x134)) (x122 (= x43 x107)) (x31 (= x116 x11)) (x97 (= x26 x67)) (x136 (= x134 x5)) (x117 (= x86 x120)) (x32 (= x120 x115)) (x150 (= x80 x67)) (x41 (= x26 x116)) (x108 (= x67 x98)) (x154 (= x114 x116)) (x141 (= x43 x70)) (x53 (= x120 x153)) (x147 (= x121 x43)) (x110 (= x116 x134)) (x146 (= x26 x43)) (x64 (= x35 x116)) (x137 (= x115 x67)) (x48 (= x68 x116)) (x28 (= x116 x99)) (x76 (= x43 x11)) (x38 (= x5 x35)) (x47 (= x87 x43)) (x24 (= x35 x67)) (x40 (= x107 x67)) (x44 (= x120 x16)) (x29 (= x52 x5)) (x12 (= x43 x8)) (x63 (= x86 x67)) (x79 (= x95 x67)) (x85 (= x116 x121)) (x3 (= x98 x5)) (x10 (= x5 x46)) (x156 (= x5 x112)) (x4 (= x148 x67)) (x128 (= x43 x86)) (x42 (= x115 x43)) (x158 (= x116 x142)) (x109 (= x21 x67)) (x17 (= x116 x16)) (x92 (= x35 x43)) (x7 (= x43 x68)) (x89 (= x116 x21)) (x33 (= x116 x87)) (x39 (= x68 x120)) (x54 (= x5 x107)) (x61 (= x116 x98)) (x144 (= x121 x67)) (x94 (= x121 x5)) (x13 (= x21 x120)) (x74 (= x142 x43)) (x14 (= x80 x120)) (x132 (= x5 x87)) (x159 (= x46 x67)) (x82 (= x112 x116)) (x62 (= x67 x99)) (x36 (= x120 x142)) (x123 (= x120 x121)) (x151 (= x43 x114)) (x30 (= x52 x67)) (x23 (= x43 x80)) (x84 (= x43 x46)) (x9 (= x114 x5)) (x71 (= x114 x67)) (x119 (= x8 x116)) (x133 (= x70 x67)) (x18 (= x134 x67)) (x83 (= x120 x107)) (x77 (= x70 x5)) (x59 (= x43 x16)) (x130 (= x148 x43)) (x103 (= x95 x43)) (x143 (= x11 x5)) (x19 (= x112 x43)) (x25 (= x148 x116)) (x51 (= x5 x148)) (x65 (= x80 x116)) (x102 (= x153 x43)) (x22 (= x11 x120)) (x27 (= x46 x116)) (x90 (= x99 x120)) (x50 (= x67 x16)) (x49 (= x153 x67)) (x60 (= x116 x86)) (x126 (= x115 x5)) (x100 (= x5 x86)) (x145 (= x116 x115)) (x75 (= x87 x120)) (x88 (= x98 x120)) (x58 (= x112 x120)) (x66 (= x116 x153)) (x149 (= x8 x67)) (x20 (= x116 x107)) (x6 (= x134 x120)) (x2 (= x67 x68)) (x96 (= x120 x95)) (x157 (= x120 x114)) (x73 (= x5 x8)) (x124 (= x148 x120)) (x69 (= x5 x142)) (x55 (= x70 x116)) (x72 (= x120 x35)) (x57 (= x52 x120)) (x78 (= x5 x16)) (x127 (= x67 x112)) (x104 (= x67 x87)) (x81 (= x67 x142)) (x139 (= x43 x52)) (x155 (= x5 x26)) (x138 (= x43 x99)) (x113 (= x46 x120))) (and (and (and (or (or (or (or (or (and (not x118) x145) (and (not x29) x28)) (and (not x155) x119)) (and (not x132) x37)) (and (not x69) x27)) (or (or (or (and x25 (not x75)) (or (and x89 (not x101)) (or (and (not x57) x61) (and (not x53) x60)))) (and (not x36) x85)) (or (or (or (or (and (not x104) x55) (or (and x17 (not x97)) (or (and x48 (not x30)) (and (not x49) x20)))) (and x64 (not x81))) (or (and x110 (not x74)) (or (and (not x47) x154) (or (and (not x146) x82) (or (and x31 (not x102)) (and (not x139) x65)))))) (or (or (and x33 (not x33)) (or (or (and x91 (not x91)) (and (not x66) x66)) (and x41 (not x41)))) (and x158 (not x158)))))) (and (or (or (or (or (and (not x157) x130) (or (and x15 (not x58)) (or (and (not x14) x45) (and x128 (not x22))))) (and (not x6) x147)) (or (or (or (or (and (not x71) x141) (or (and x59 (not x127)) (or (and (not x150) x7) (and x122 (not x93))))) (and (not x18) x92)) (or (and (not x152) x152) (or (and (not x151) x151) (or (or (and (not x76) x76) (and x23 (not x23))) (and x19 (not x19)))))) (or (and (not x110) x74) (or (and x47 (not x154)) (or (or (and (not x65) x139) (and x102 (not x31))) (and (not x82) x146)))))) (or (or (or (and x12 (not x156)) (or (and x42 (not x143)) (and x138 (not x34)))) (and (not x9) x103)) (and (not x136) x84))) (or (or (or (or (and (not x78) x149) (or (and (not x54) x137) (and (not x1) x62))) (and x79 (not x77))) (and x159 (not x38))) (or (or (or (or (and (not x55) x104) (or (and x97 (not x17)) (or (and (not x20) x49) (and (not x48) x30)))) (and x81 (not x64))) (or (or (or (or (and x127 (not x59)) (or (and (not x7) x150) (and x93 (not x122)))) (and (not x141) x71)) (and x18 (not x92))) (or (or (and (not x133) x133) (or (or (and (not x40) x40) (and (not x2) x2)) (and (not x50) x50))) (and x24 (not x24))))) (or (or (or (or (and (not x83) x63) (and x108 (not x39))) (and x109 (not x44))) (and x4 (not x105))) (and x144 (not x72))))))) (or (or (and (not x94) x113) (or (or (or (and (not x100) x32) (and x90 (not x3))) (and x125 (not x56))) (and (not x51) x96))) (or (or (or (or (and x75 (not x25)) (or (and x101 (not x89)) (or (and x57 (not x61)) (and (not x60) x53)))) (and (not x85) x36)) (or (or (or (and (not x130) x157) (or (or (and (not x45) x14) (and (not x128) x22)) (and x58 (not x15)))) (and x6 (not x147))) (or (or (or (or (and x83 (not x63)) (and x39 (not x108))) (and (not x109) x44)) (and (not x4) x105)) (and x72 (not x144))))) (or (or (and (not x124) x124) (or (or (and (not x117) x117) (and (not x88) x88)) (and (not x13) x13))) (and x123 (not x123)))))) (or (or (or (or (and x69 (not x27)) (or (or (or (and x29 (not x28)) (and (not x145) x118)) (and (not x119) x155)) (and (not x37) x132))) (or (or (and (not x159) x38) (or (and x77 (not x79)) (or (and x78 (not x149)) (or (and (not x62) x1) (and x54 (not x137)))))) (or (or (and x9 (not x103)) (or (or (and (not x42) x143) (and x34 (not x138))) (and x156 (not x12)))) (and (not x84) x136)))) (or (or (or (and x56 (not x125)) (or (and (not x32) x100) (and x3 (not x90)))) (and (not x96) x51)) (and (not x113) x94))) (or (and x10 (not x10)) (or (or (and x73 (not x73)) (or (and x126 (not x126)) (and x131 (not x131)))) (and x135 (not x135)))))))))
(assert (let ((x93 (x140 x116 x43)) (x71 (x140 x120 x116)) (x16 (x140 x43 x116)) (x141 (x140 x120 x43)) (x18 (x140 x120 x5)) (x24 (x140 x67 x5)) (x35 (x140 x43 x5)) (x7 (x140 x116 x116)) (x11 (x140 x5 x67)) (x122 (x140 x116 x67)) (x133 (x140 x67 x120)) (x150 (x140 x116 x120)) (x92 (x140 x120 x120)) (x76 (x140 x5 x43)) (x127 (x140 x120 x67)) (x23 (x140 x5 x120)) (x59 (x140 x116 x5)) (x40 (x140 x67 x67)) (x107 (x140 x43 x67)) (x70 (x140 x43 x120)) (x80 (x140 x5 x116)) (x50 (x140 x67 x116)) (x68 (x140 x43 x43)) (x2 (x140 x67 x43)) (x112 (x140 x5 x5))) (and (and (and (and (and (and (and (and (or (or (or (= x40 x116) (or (= x40 x43) (= x40 x67))) (= x120 x40)) (= x40 x5)) (or (= x2 x5) (or (= x120 x2) (or (= x2 x116) (or (= x2 x67) (= x43 x2)))))) (or (or (or (= x50 x116) (or (= x50 x43) (= x67 x50))) (= x120 x50)) (= x5 x50))) (or (or (or (= x116 x133) (or (= x133 x67) (= x133 x43))) (= x133 x120)) (= x133 x5))) (or (= x24 x5) (or (or (= x116 x24) (or (= x43 x24) (= x67 x24))) (= x24 x120)))) (and (or (= x35 x5) (or (= x120 x35) (or (or (= x35 x43) (= x35 x67)) (= x116 x35)))) (and (and (or (or (= x120 x16) (or (= x116 x16) (or (= x16 x43) (= x67 x16)))) (= x5 x16)) (and (or (= x5 x68) (or (= x120 x68) (or (= x116 x68) (or (= x68 x67) (= x68 x43))))) (or (= x107 x5) (or (= x107 x120) (or (= x107 x116) (or (= x107 x67) (= x43 x107))))))) (or (or (= x120 x70) (or (= x116 x70) (or (= x43 x70) (= x67 x70)))) (= x70 x5))))) (and (or (or (or (= x116 x59) (or (= x67 x59) (= x59 x43))) (= x59 x120)) (= x5 x59)) (and (or (= x150 x5) (or (= x120 x150) (or (= x150 x116) (or (= x43 x150) (= x67 x150))))) (and (or (or (= x120 x7) (or (or (= x7 x43) (= x67 x7)) (= x7 x116))) (= x7 x5)) (and (or (or (or (or (= x93 x43) (= x93 x67)) (= x116 x93)) (= x93 x120)) (= x5 x93)) (or (= x5 x122) (or (or (= x122 x116) (or (= x43 x122) (= x122 x67))) (= x120 x122)))))))) (and (and (and (and (or (or (= x120 x141) (or (= x116 x141) (or (= x141 x67) (= x43 x141)))) (= x141 x5)) (or (or (= x120 x127) (or (= x127 x116) (or (= x127 x67) (= x127 x43)))) (= x5 x127))) (or (= x71 x5) (or (= x71 x120) (or (or (= x71 x43) (= x67 x71)) (= x116 x71))))) (or (= x92 x5) (or (or (or (= x92 x43) (= x92 x67)) (= x116 x92)) (= x92 x120)))) (or (= x18 x5) (or (or (= x116 x18) (or (= x18 x67) (= x43 x18))) (= x120 x18))))) (and (and (and (or (or (or (= x116 x80) (or (= x43 x80) (= x67 x80))) (= x120 x80)) (= x5 x80)) (and (or (or (= x120 x11) (or (= x11 x116) (or (= x11 x67) (= x11 x43)))) (= x5 x11)) (or (or (= x120 x76) (or (or (= x76 x67) (= x43 x76)) (= x116 x76))) (= x5 x76)))) (or (= x23 x5) (or (= x120 x23) (or (= x23 x116) (or (= x43 x23) (= x67 x23)))))) (or (= x112 x5) (or (or (or (= x43 x112) (= x112 x67)) (= x112 x116)) (= x120 x112)))))))
(assert (let ((x133 (= x120 (x140 x120 x120))) (x40 (= (x140 x67 x67) x67)) (x2 (= (x140 x43 x43) x43)) (x50 (= (x140 x116 x116) x116)) (x24 (= x5 (x140 x5 x5)))) (and (and (and (and (and (or x40 (not (= x5 (x140 x67 x5)))) (and (or (not (= (x140 x67 x120) x120)) x40) (and (and (or x40 (not (= x43 (x140 x67 x43)))) (or x40 (not x40))) (or x40 (not (= (x140 x67 x116) x116)))))) (and (and (or x2 (not (= (x140 x43 x120) x120))) (and (or (not (= (x140 x43 x116) x116)) x2) (and (or (not x2) x2) (or (not (= x67 (x140 x43 x67))) x2)))) (or x2 (not (= (x140 x43 x5) x5))))) (and (or x50 (not (= (x140 x116 x5) x5))) (and (or x50 (not (= x120 (x140 x116 x120)))) (and (and (or x50 (not (= (x140 x116 x67) x67))) (or x50 (not (= x43 (x140 x116 x43))))) (or x50 (not x50)))))) (and (or (not (= x5 (x140 x120 x5))) x133) (and (and (and (or x133 (not (= (x140 x120 x67) x67))) (or (not (= (x140 x120 x43) x43)) x133)) (or x133 (not (= (x140 x120 x116) x116)))) (or (not x133) x133)))) (and (and (or (not (= x120 (x140 x5 x120))) x24) (and (and (or (not (= x43 (x140 x5 x43))) x24) (or x24 (not (= x67 (x140 x5 x67))))) (or x24 (not (= (x140 x5 x116) x116))))) (or (not x24) x24)))))
(assert (and (= x5 (x140 x67 x116)) (and (= (x140 x67 x120) x116) (and (= x43 (x140 x67 x5)) (= (x140 x120 x120) x67)))))
(assert (or (or (or (and (not (= x116 (x140 x5 (x140 x116 x5)))) (and (and (not (= x116 (x140 x116 (x140 x116 x116)))) (and (not (= x116 (x140 x67 (x140 x116 x67)))) (not (= x116 (x140 x43 (x140 x116 x43)))))) (not (= (x140 x120 (x140 x116 x120)) x116)))) (or (and (and (not (= x67 (x140 x120 (x140 x67 x120)))) (and (not (= x67 (x140 x116 (x140 x67 x116)))) (and (not (= x67 (x140 x43 (x140 x67 x43)))) (not (= x67 (x140 x67 (x140 x67 x67))))))) (not (= (x140 x5 (x140 x67 x5)) x67))) (and (not (= (x140 x5 (x140 x43 x5)) x43)) (and (not (= x43 (x140 x120 (x140 x43 x120)))) (and (not (= (x140 x116 (x140 x43 x116)) x43)) (and (not (= x43 (x140 x67 (x140 x43 x67)))) (not (= (x140 x43 (x140 x43 x43)) x43)))))))) (and (not (= (x140 x5 (x140 x120 x5)) x120)) (and (and (not (= x120 (x140 x116 (x140 x120 x116)))) (and (not (= x120 (x140 x43 (x140 x120 x43)))) (not (= x120 (x140 x67 (x140 x120 x67)))))) (not (= x120 (x140 x120 (x140 x120 x120))))))) (and (and (not (= (x140 x120 (x140 x5 x120)) x5)) (and (not (= (x140 x116 (x140 x5 x116)) x5)) (and (not (= x5 (x140 x43 (x140 x5 x43)))) (not (= x5 (x140 x67 (x140 x5 x67))))))) (not (= x5 (x140 x5 (x140 x5 x5)))))))
(assert (or (= (x140 x5 x5) x5) (or (= (x140 x120 x120) x120) (or (= (x140 x116 x116) x116) (or (= x43 (x140 x43 x43)) (= (x140 x67 x67) x67))))))
(assert (let ((x21 (x140 x43 x43)) (x8 (x140 x120 x43)) (x104 (x140 x120 x116)) (x151 (x140 x67 x43)) (x19 (x140 x67 x67)) (x74 (x140 x5 x120)) (x153 (x140 x116 x67)) (x99 (x140 x43 x120)) (x55 (x140 x116 x120)) (x142 (x140 x5 x67)) (x64 (x140 x116 x5)) (x95 (x140 x43 x5)) (x81 (x140 x5 x116)) (x17 (x140 x116 x116)) (x108 (x140 x5 x5)) (x110 (x140 x120 x5)) (x152 (x140 x67 x116)) (x121 (x140 x43 x116)) (x154 (x140 x120 x120)) (x115 (x140 x116 x43)) (x52 (x140 x67 x120)) (x134 (x140 x43 x67)) (x46 (x140 x5 x43)) (x87 (x140 x67 x5)) (x26 (x140 x120 x67))) (let ((x24 (not (= x67 x153))) (x7 (not (= x67 x99))) (x51 (not (= x142 x5))) (x30 (not (= x43 x121))) (x86 (not (= x134 x43))) (x89 (not (= x116 x81))) (x2 (not (= x134 x67))) (x80 (not (= x67 x74))) (x150 (not (= x104 x67))) (x149 (not (= x52 x120))) (x148 (not (= x21 x43))) (x85 (not (= x116 x108))) (x12 (not (= x81 x120))) (x91 (not (= x43 x87))) (x11 (not (= x81 x67))) (x146 (not (= x55 x43))) (x31 (not (= x43 x26))) (x76 (not (= x64 x67))) (x14 (not (= x121 x116))) (x114 (not (= x43 x19))) (x57 (not (= x116 x87))) (x6 (not (= x116 x104))) (x54 (not (= x152 x120))) (x124 (not (= x21 x120))) (x73 (not (= x74 x5))) (x93 (not (= x8 x67))) (x47 (not (= x43 x154))) (x144 (not (= x153 x116))) (x45 (not (= x17 x116))) (x38 (not (= x104 x120))) (x118 (not (= x19 x5))) (x16 (not (= x121 x67))) (x40 (not (= x19 x67))) (x141 (not (= x67 x142))) (x157 (not (= x8 x116))) (x101 (not (= x116 x95))) (x75 (not (= x116 x64))) (x82 (not (= x43 x104))) (x109 (not (= x19 x116))) (x28 (not (= x21 x5))) (x105 (not (= x134 x116))) (x117 (not (= x19 x120))) (x122 (not (= x67 x52))) (x15 (not (= x52 x116))) (x138 (not (= x120 x46))) (x27 (not (= x26 x5))) (x70 (not (= x17 x67))) (x156 (not (= x120 x95))) (x41 (not (= x46 x43))) (x44 (not (= x108 x43))) (x4 (not (= x116 x151))) (x136 (not (= x110 x120))) (x96 (not (= x87 x5))) (x1 (not (= x121 x120))) (x112 (not (= x67 x108))) (x36 (not (= x110 x116))) (x119 (not (= x152 x5))) (x53 (not (= x116 x154))) (x65 (not (= x8 x43))) (x128 (not (= x116 x115))) (x66 (not (= x43 x142))) (x139 (not (= x43 x99))) (x137 (not (= x120 x115))) (x145 (not (= x5 x134))) (x60 (not (= x116 x142))) (x48 (not (= x115 x43))) (x92 (not (= x67 x46))) (x100 (not (= x52 x5))) (x127 (not (= x67 x154))) (x72 (not (= x116 x21))) (x113 (not (= x5 x95))) (x62 (not (= x120 x17))) (x37 (not (= x5 x121))) (x132 (not (= x115 x5))) (x32 (not (= x8 x5))) (x10 (not (= x5 x108))) (x29 (not (= x5 x151))) (x84 (not (= x120 x108))) (x107 (not (= x152 x67))) (x103 (not (= x120 x74))) (x78 (not (= x26 x120))) (x159 (not (= x120 x55))) (x94 (not (= x46 x5))) (x25 (not (= x74 x116))) (x155 (not (= x5 x153))) (x42 (not (= x142 x120))) (x83 (not (= x43 x64))) (x79 (not (= x99 x120))) (x131 (not (= x64 x5))) (x97 (not (= x43 x17))) (x13 (not (= x120 x151))) (x33 (not (= x43 x95))) (x71 (not (= x67 x87))) (x22 (not (= x152 x116))) (x61 (not (= x116 x46))) (x49 (not (= x152 x43))) (x102 (not (= x52 x43))) (x143 (not (= x154 x120))) (x126 (not (= x5 x81))) (x59 (not (= x55 x67))) (x63 (not (= x74 x43))) (x147 (not (= x116 x55))) (x20 (not (= x153 x43))) (x58 (not (= x116 x26))) (x90 (not (= x104 x5))) (x34 (not (= x87 x120))) (x35 (not (= x67 x26))) (x23 (not (= x67 x110))) (x77 (not (= x120 x8))) (x69 (not (= x5 x17))) (x158 (not (= x43 x81))) (x3 (not (= x99 x5))) (x18 (not (= x67 x95))) (x98 (not (= x43 x151))) (x130 (not (= x99 x116))) (x50 (not (= x67 x151))) (x9 (not (= x64 x120))) (x39 (not (= x43 x110))) (x68 (not (= x67 x115))) (x133 (not (= x67 x21))) (x125 (not (= x5 x154))) (x135 (not (= x110 x5))) (x123 (not (= x120 x153))) (x56 (not (= x55 x5))) (x88 (not (= x120 x134)))) (or (and (and (and (or x73 x135) (and (or x126 x131) (and (or x51 x96) (or x113 x94)))) (or x10 x10)) (and (and (and (and (or x56 x90) (and (and (or x155 x119) (or x132 x37)) (or x69 x69))) (or x126 x131)) (and (and (or x51 x96) (and (and (and (or x118 x118) (or x29 x145)) (or x155 x119)) (or x27 x100))) (and (or x113 x94) (and (or x3 x32) (and (and (or x145 x29) (or x28 x28)) (or x37 x132)))))) (and (or x73 x135) (and (or x125 x125) (and (and (or x3 x32) (or x100 x27)) (or x90 x56)))))) (or (or (or (and (and (and (or x23 x80) (and (and (or x150 x59) (and (or x93 x7) (or x122 x35))) (or x127 x127))) (and (and (and (or x71 x141) (and (and (and (or x40 x40) (or x2 x50)) (or x24 x107)) (or x35 x122))) (and (and (and (or x68 x16) (and (or x133 x133) (or x50 x2))) (or x7 x93)) (or x92 x18))) (and (and (or x150 x59) (and (and (or x68 x16) (or x24 x107)) (or x70 x70))) (or x76 x11)))) (and (or x112 x112) (and (and (or x76 x11) (and (or x141 x71) (or x92 x18))) (or x23 x80)))) (and (and (and (and (and (and (or x31 x102) (and (and (or x114 x114) (or x86 x98)) (or x49 x20))) (or x91 x66)) (and (and (and (and (or x148 x148) (or x98 x86)) (or x48 x30)) (or x139 x65)) (or x41 x33))) (and (or x158 x83) (and (and (or x97 x97) (and (or x20 x49) (or x48 x30))) (or x82 x146)))) (and (or x39 x63) (and (and (or x82 x146) (and (or x139 x65) (or x31 x102))) (or x47 x47)))) (and (or x44 x44) (and (and (or x158 x83) (and (or x41 x33) (or x66 x91))) (or x39 x63))))) (and (and (and (or x25 x36) (and (or x75 x89) (and (or x57 x60) (or x61 x101)))) (or x85 x85)) (and (and (and (or x75 x89) (and (and (and (or x14 x128) (or x144 x22)) (or x45 x45)) (or x147 x6))) (and (and (or x60 x57) (and (and (or x22 x144) (and (or x105 x4) (or x109 x109))) (or x15 x58))) (and (or x101 x61) (and (or x130 x157) (and (and (or x72 x72) (or x105 x4)) (or x14 x128)))))) (and (or x25 x36) (and (and (and (or x15 x58) (or x130 x157)) (or x6 x147)) (or x53 x53)))))) (and (and (and (or x103 x136) (and (or x143 x143) (and (or x159 x38) (and (or x79 x77) (or x149 x78))))) (and (and (and (and (or x77 x79) (and (and (or x88 x13) (or x124 x124)) (or x1 x137))) (or x156 x138)) (and (and (or x78 x149) (and (and (or x13 x88) (or x117 x117)) (or x123 x54))) (or x42 x34))) (and (or x12 x9) (and (or x38 x159) (and (or x62 x62) (and (or x54 x123) (or x137 x1))))))) (and (and (and (or x9 x12) (and (or x156 x138) (or x34 x42))) (or x136 x103)) (or x84 x84))))))))
(assert (let ((x24 (x140 x5 x5)) (x2 (x140 x43 x43)) (x40 (x140 x67 x67)) (x133 (x140 x120 x120)) (x50 (x140 x116 x116))) (let ((x35 (not (= (x140 x116 x50) x116))) (x68 (= x40 x67)) (x122 (= x116 x50)) (x16 (not (= (x140 x43 x2) x43))) (x7 (= x120 x133)) (x107 (not (= (x140 x67 x40) x67))) (x150 (not (= (x140 x5 x24) x5))) (x70 (= x2 x43)) (x59 (= x5 x24)) (x93 (not (= x120 (x140 x120 x133))))) (and (and (and (and (and (or x107 (or (or (or (or x68 (= (x140 x43 x67) x43)) (= (x140 x116 x67) x116)) (= x120 (x140 x120 x67))) (= x5 (x140 x5 x67)))) (or (or (= x5 (x140 x5 x43)) (or (or (= (x140 x116 x43) x116) (or x70 (= (x140 x67 x43) x67))) (= (x140 x120 x43) x120))) x16)) (or x35 (or (= x5 (x140 x5 x116)) (or (= (x140 x120 x116) x120) (or x122 (or (= x67 (x140 x67 x116)) (= (x140 x43 x116) x43))))))) (or (or (or (or (= (x140 x116 x120) x116) (or (= x43 (x140 x43 x120)) (= (x140 x67 x120) x67))) x7) (= x5 (x140 x5 x120))) x93)) (or (or x59 (or (= x120 (x140 x120 x5)) (or (or (= x67 (x140 x67 x5)) (= x43 (x140 x43 x5))) (= (x140 x116 x5) x116)))) x150)) (and (or x150 (or x59 (or (= x133 x5) (or (= x50 x5) (or (= x5 x2) (= x5 x40)))))) (and (and (or (or (= x116 x24) (or (= x133 x116) (or x122 (or (= x2 x116) (= x116 x40))))) x35) (and (or (or (= x67 x24) (or (or (or (= x2 x67) x68) (= x50 x67)) (= x67 x133))) x107) (or (or (= x43 x24) (or (or (or (= x40 x43) x70) (= x43 x50)) (= x133 x43))) x16))) (or x93 (or (or x7 (or (= x50 x120) (or (= x120 x40) (= x2 x120)))) (= x24 x120)))))))))
(assert (not (and (= x67 (x140 x5 x5)) (and (= (x140 x5 x120) x43) (and (and (and (and (= (x140 x120 x5) x120) (and (= x67 (x140 x120 x120)) (and (and (and (= (x140 x120 x67) x5) (and (and (and (and (= (x140 x116 x43) x67) (and (= x43 (x140 x116 x67)) (and (and (and (= (x140 x43 x116) x67) (and (= x43 (x140 x43 x43)) (and (and (and (= (x140 x67 x120) x116) (and (and (= x120 (x140 x67 x43)) (= (x140 x67 x67) x67)) (= (x140 x67 x116) x5))) (= x43 (x140 x67 x5))) (= x120 (x140 x43 x67))))) (= (x140 x43 x120) x5)) (= (x140 x43 x5) x116)))) (= x116 (x140 x116 x116))) (= x120 (x140 x116 x120))) (= x5 (x140 x116 x5)))) (= (x140 x120 x43) x116)) (= (x140 x120 x116) x43)))) (= (x140 x5 x67) x116)) (= x5 (x140 x5 x43))) (= (x140 x5 x116) x120))))))
(assert (or (and (and (not (= (x140 (x140 x120 x5) x120) x5)) (and (and (not (= (x140 (x140 x67 x5) x67) x5)) (not (= x5 (x140 (x140 x43 x5) x43)))) (not (= x5 (x140 (x140 x116 x5) x116))))) (not (= (x140 (x140 x5 x5) x5) x5))) (or (or (and (and (not (= x116 (x140 (x140 x120 x116) x120))) (and (not (= (x140 (x140 x116 x116) x116) x116)) (and (not (= x116 (x140 (x140 x43 x116) x43))) (not (= (x140 (x140 x67 x116) x67) x116))))) (not (= x116 (x140 (x140 x5 x116) x5)))) (or (and (and (and (and (not (= x43 (x140 (x140 x67 x43) x67))) (not (= x43 (x140 (x140 x43 x43) x43)))) (not (= x43 (x140 (x140 x116 x43) x116)))) (not (= (x140 (x140 x120 x43) x120) x43))) (not (= (x140 (x140 x5 x43) x5) x43))) (and (and (and (not (= (x140 (x140 x116 x67) x116) x67)) (and (not (= x67 (x140 (x140 x67 x67) x67))) (not (= x67 (x140 (x140 x43 x67) x43))))) (not (= (x140 (x140 x120 x67) x120) x67))) (not (= (x140 (x140 x5 x67) x5) x67))))) (and (not (= x120 (x140 (x140 x5 x120) x5))) (and (not (= x120 (x140 (x140 x120 x120) x120))) (and (not (= (x140 (x140 x116 x120) x116) x120)) (and (not (= (x140 (x140 x67 x120) x67) x120)) (not (= x120 (x140 (x140 x43 x120) x43))))))))))
(assert (not (and (and (and (and (and (and (and (and (= x120 (x140 x120 x116)) (and (= (x140 x120 x43) x5) (and (and (= x120 (x140 x116 x5)) (and (and (and (and (and (and (and (and (and (= (x140 x43 x67) x116) (and (= x43 (x140 x67 x5)) (and (and (= (x140 x67 x116) x5) (and (= (x140 x67 x67) x67) (= (x140 x67 x43) x120))) (= (x140 x67 x120) x116)))) (= (x140 x43 x43) x43)) (= (x140 x43 x116) x67)) (= (x140 x43 x120) x120)) (= (x140 x43 x5) x5)) (= (x140 x116 x67) x5)) (= x67 (x140 x116 x43))) (= x116 (x140 x116 x116))) (= (x140 x116 x120) x43))) (= (x140 x120 x67) x43)))) (= x67 (x140 x120 x120))) (= x116 (x140 x120 x5))) (= x120 (x140 x5 x67))) (= x116 (x140 x5 x43))) (= x43 (x140 x5 x116))) (= (x140 x5 x120) x5)) (= x67 (x140 x5 x5)))))
(assert (let ((x40 (x140 x67 x67)) (x24 (x140 x5 x5)) (x133 (x140 x120 x120)) (x50 (x140 x116 x116)) (x2 (x140 x43 x43))) (and (and (= x133 (x140 x133 x133)) (and (and (= x40 (x140 x40 x40)) (= x2 (x140 x2 x2))) (= (x140 x50 x50) x50))) (= x24 (x140 x24 x24)))))
(assert (and (and (and (not (= x116 x120)) (and (and (and (not (= x116 x43)) (and (and (and (not (= x67 x116)) (not (= x43 x67))) (not (= x120 x67))) (not (= x67 x5)))) (not (= x120 x43))) (not (= x5 x43)))) (not (= x116 x5))) (not (= x5 x120))))
(check-sat)
(exit)
